StudentsNr = 10;
InstructorsNr = 36;
DaysNr = 1;
SlotsPerDay = 15;
AvailabilitySlotsLenght = 3;
RoomNr = 1;
ProgrammNr = 2;
DegreeNr = 2;
RolesNr = 4;
CoursesNr = 1;
InstructorsProgramm = [{1}, {1}, {2}, {1}, {1}, {2}, {1, 2}, {1}, {1}, {1}, {2}, {1, 2}, {2}, {1}, {2}, {2}, {1}, {1, 2}, {1}, {2}, {2}, {1}, {1}, {1}, {1, 2}, {1, 2}, {1}, {2}, {1}, {2}, {1}, {1}, {2}, {1}, {1, 2}, {2}];
InstructorRolesPerProgramm = [|{2, 7, 9, 10, 23, 24, 25, 26, 29, 31, 32, 35}, {1, 4, 5, 7, 9, 19, 22, 25, 26, 29, 35}, {5, 8, 10, 17, 22, 24}, {5, 7, 14, 17, 19, 25, 26, 31, 32}|{3, 7, 13, 15, 16, 25, 26, 33, 35}, {7, 11, 16, 21, 25, 26, 28, 35}, {13, 15, 16, 21}, {3, 6, 7, 13, 15, 16, 25, 26, 30, 33}|];
InstructorsAvailability = [|1, 0, 0, 1, 1, |0, 1, 1, 1, 1, |0, 0, 1, 1, 1, |0, 1, 1, 1, 1, |1, 1, 1, 1, 1, |0, 0, 1, 1, 1, |0, 0, 0, 1, 1, |0, 1, 1, 0, 1, |1, 1, 1, 1, 0, |0, 0, 1, 1, 1, |1, 1, 0, 0, 1, |0, 0, 1, 1, 0, |1, 0, 0, 0, 1, |0, 0, 0, 0, 1, |0, 1, 1, 1, 0, |0, 1, 1, 1, 1, |1, 0, 0, 0, 1, |1, 0, 0, 0, 1, |0, 0, 1, 1, 1, |1, 1, 1, 1, 1, |0, 1, 1, 1, 0, |1, 1, 1, 1, 1, |0, 0, 0, 1, 1, |0, 1, 1, 0, 0, |0, 1, 1, 1, 1, |0, 1, 1, 1, 0, |1, 1, 1, 1, 1, |0, 1, 1, 1, 0, |0, 1, 1, 0, 1, |0, 1, 0, 0, 1, |0, 1, 1, 1, 0, |1, 1, 1, 1, 0, |0, 1, 1, 1, 0, |0, 1, 0, 1, 1, |0, 0, 0, 0, 1, |1, 1, 1, 0, 1|];
StudentsProgramm = [2, 2, 1, 1, 2, 2, 2, 1, 2, 1];
StudentsDegree = [2, 2, 2, 1, 1, 2, 2, 2, 1, 1];
StudentsSupervisorId = [12, 25, 19, 23, 7, 11, 35, 34, 26, 5];
StudentsCourseIds = [{}, {}, {}, {1}, {1}, {}, {}, {}, {1}, {1}];
StudentsAvailability = [|1, 1, 0, 0, 1, |0, 0, 0, 0, 0, |1, 1, 1, 1, 1, |1, 1, 1, 1, 1, |0, 0, 0, 1, 0, |1, 1, 1, 1, 1, |0, 1, 1, 1, 1, |0, 1, 1, 1, 1, |0, 1, 1, 1, 1, |1, 1, 1, 1, 1|];
TheoryticalMinCard = [1, 0, 0, 0, 0, 0, 0, 1, 0, 0];
CoursesInstructorIds = [{1, 3, 6, 7, 8, 9, 10, 11, 12, 15, 16, 17, 19, 21, 24, 25, 27, 28, 32, 33, 34, 35}];
RolesDemands = [7, 7, 1, 5];
RolesContinuity = [1, 3, 4];
ExamLen = [1, 1, 1, 2, 2, 1, 1, 1, 2, 2];
LunchTsMinLen = 0;
LunchStarts = [7..10];
SupervisorAvailable = 5;
OptimalLunchLenght = [2, 0];
OptimalStartTs = [0, 0];
OptimalFinishTs = [0, 15];
MinimizeRooms = 500;
RolesSoftContinuity = [|1, 2, 3, 4|2, 4, 1, 0|];
SameDegreeInRoom = 0;
Mergeability = 1;
